p cnf 200 1110
-101 13 0
-101 8 0
-101 -76 0
-101 38 0
-101 -25 0
-101 -35 0
-101 -21 0
-101 59 0
-101 -36 0
-101 -15 0
101 -13 -8 76 -38 25 35 21 -59 36 15 0
-102 -10 0
-102 -16 0
-102 98 0
-102 87 0
-102 37 0
-102 54 0
-102 -7 0
-102 84 0
-102 -94 0
-102 -42 0
102 10 16 -98 -87 -37 -54 7 -84 94 42 0
-103 -76 0
-103 -30 0
-103 -34 0
-103 -66 0
-103 99 0
-103 -70 0
-103 41 0
-103 58 0
-103 93 0
-103 51 0
103 76 30 34 66 -99 70 -41 -58 -93 -51 0
-104 98 0
-104 41 0
-104 -20 0
-104 76 0
-104 -8 0
-104 39 0
-104 -95 0
-104 -45 0
-104 -97 0
-104 18 0
104 -98 -41 20 -76 8 -39 95 45 97 -18 0
-105 -63 0
-105 70 0
-105 40 0
-105 87 0
-105 85 0
-105 -82 0
-105 72 0
-105 61 0
-105 52 0
-105 -90 0
105 63 -70 -40 -87 -85 82 -72 -61 -52 90 0
-106 -76 0
-106 -70 0
-106 -57 0
-106 64 0
-106 90 0
-106 2 0
-106 -7 0
-106 -35 0
-106 86 0
-106 28 0
106 76 70 57 -64 -90 -2 7 35 -86 -28 0
-107 67 0
-107 -82 0
-107 37 0
-107 -48 0
-107 -74 0
-107 -15 0
-107 85 0
-107 -18 0
-107 -19 0
-107 -91 0
107 -67 82 -37 48 74 15 -85 18 19 91 0
-108 -5 0
-108 83 0
-108 -8 0
-108 -49 0
-108 -59 0
-108 61 0
-108 62 0
-108 -16 0
-108 -31 0
-108 53 0
108 5 -83 8 49 59 -61 -62 16 31 -53 0
-109 35 0
-109 58 0
-109 39 0
-109 -88 0
-109 -73 0
-109 -9 0
-109 46 0
-109 -3 0
-109 -78 0
-109 -8 0
109 -35 -58 -39 88 73 9 -46 3 78 8 0
-110 -7 0
-110 -49 0
-110 91 0
-110 -64 0
-110 29 0
-110 82 0
-110 83 0
-110 93 0
-110 58 0
-110 99 0
110 7 49 -91 64 -29 -82 -83 -93 -58 -99 0
101 102 103 104 105 106 107 108 109 110 0
-111 -22 0
-111 16 0
-111 34 0
-111 -15 0
-111 23 0
-111 -69 0
-111 4 0
-111 -28 0
-111 -40 0
-111 -92 0
111 22 -16 -34 15 -23 69 -4 28 40 92 0
-112 56 0
-112 25 0
-112 4 0
-112 34 0
-112 -60 0
-112 -55 0
-112 13 0
-112 27 0
-112 -64 0
-112 -11 0
112 -56 -25 -4 -34 60 55 -13 -27 64 11 0
-113 15 0
-113 -24 0
-113 22 0
-113 36 0
-113 18 0
-113 -100 0
-113 -94 0
-113 9 0
-113 -34 0
-113 -85 0
113 -15 24 -22 -36 -18 100 94 -9 34 85 0
-114 -13 0
-114 -21 0
-114 2 0
-114 30 0
-114 -91 0
-114 -28 0
-114 71 0
-114 39 0
-114 26 0
-114 -73 0
114 13 21 -2 -30 91 28 -71 -39 -26 73 0
-115 -92 0
-115 18 0
-115 3 0
-115 -32 0
-115 45 0
-115 26 0
-115 58 0
-115 11 0
-115 -17 0
-115 -31 0
115 92 -18 -3 32 -45 -26 -58 -11 17 31 0
-116 83 0
-116 67 0
-116 18 0
-116 43 0
-116 21 0
-116 -17 0
-116 34 0
-116 76 0
-116 -31 0
-116 -79 0
116 -83 -67 -18 -43 -21 17 -34 -76 31 79 0
-117 30 0
-117 -48 0
-117 75 0
-117 94 0
-117 -44 0
-117 71 0
-117 53 0
-117 83 0
-117 -21 0
-117 78 0
117 -30 48 -75 -94 44 -71 -53 -83 21 -78 0
-118 18 0
-118 52 0
-118 61 0
-118 -79 0
-118 2 0
-118 -89 0
-118 92 0
-118 -77 0
-118 72 0
-118 41 0
118 -18 -52 -61 79 -2 89 -92 77 -72 -41 0
-119 -69 0
-119 -38 0
-119 83 0
-119 48 0
-119 -96 0
-119 -13 0
-119 -33 0
-119 9 0
-119 -1 0
-119 -7 0
119 69 38 -83 -48 96 13 33 -9 1 7 0
-120 45 0
-120 -15 0
-120 -88 0
-120 31 0
-120 22 0
-120 9 0
-120 13 0
-120 -48 0
-120 95 0
-120 99 0
120 -45 15 88 -31 -22 -9 -13 48 -95 -99 0
111 112 113 114 115 116 117 118 119 120 0
-121 38 0
-121 43 0
-121 -2 0
-121 -67 0
-121 -82 0
-121 74 0
-121 -87 0
-121 78 0
-121 65 0
-121 45 0
121 -38 -43 2 67 82 -74 87 -78 -65 -45 0
-122 8 0
-122 34 0
-122 -78 0
-122 -55 0
-122 88 0
-122 26 0
-122 2 0
-122 29 0
-122 -81 0
-122 100 0
122 -8 -34 78 55 -88 -26 -2 -29 81 -100 0
-123 -84 0
-123 67 0
-123 79 0
-123 -81 0
-123 29 0
-123 -61 0
-123 45 0
-123 16 0
-123 -59 0
-123 68 0
123 84 -67 -79 81 -29 61 -45 -16 59 -68 0
-124 52 0
-124 -73 0
-124 72 0
-124 9 0
-124 28 0
-124 -57 0
-124 -89 0
-124 -26 0
-124 -45 0
-124 10 0
124 -52 73 -72 -9 -28 57 89 26 45 -10 0
-125 69 0
-125 78 0
-125 -91 0
-125 -45 0
-125 81 0
-125 19 0
-125 7 0
-125 -27 0
-125 51 0
-125 87 0
125 -69 -78 91 45 -81 -19 -7 27 -51 -87 0
-126 63 0
-126 30 0
-126 -25 0
-126 -85 0
-126 -39 0
-126 51 0
-126 52 0
-126 -54 0
-126 44 0
-126 56 0
126 -63 -30 25 85 39 -51 -52 54 -44 -56 0
-127 52 0
-127 -82 0
-127 -74 0
-127 -81 0
-127 -92 0
-127 54 0
-127 43 0
-127 -96 0
-127 60 0
-127 -38 0
127 -52 82 74 81 92 -54 -43 96 -60 38 0
-128 -22 0
-128 -10 0
-128 80 0
-128 -86 0
-128 59 0
-128 70 0
-128 -43 0
-128 -58 0
-128 99 0
-128 -82 0
128 22 10 -80 86 -59 -70 43 58 -99 82 0
-129 79 0
-129 -60 0
-129 -82 0
-129 -63 0
-129 -25 0
-129 -70 0
-129 -23 0
-129 -91 0
-129 31 0
-129 94 0
129 -79 60 82 63 25 70 23 91 -31 -94 0
-130 88 0
-130 -74 0
-130 -51 0
-130 8 0
-130 -44 0
-130 87 0
-130 -15 0
-130 28 0
-130 -98 0
-130 77 0
130 -88 74 51 -8 44 -87 15 -28 98 -77 0
121 122 123 124 125 126 127 128 129 130 0
-131 78 0
-131 -95 0
-131 5 0
-131 17 0
-131 43 0
-131 20 0
-131 -32 0
-131 -34 0
-131 -31 0
-131 -16 0
131 -78 95 -5 -17 -43 -20 32 34 31 16 0
-132 78 0
-132 -96 0
-132 -25 0
-132 88 0
-132 45 0
-132 -76 0
-132 -77 0
-132 -52 0
-132 21 0
-132 -16 0
132 -78 96 25 -88 -45 76 77 52 -21 16 0
-133 -84 0
-133 61 0
-133 60 0
-133 -96 0
-133 52 0
-133 -2 0
-133 98 0
-133 19 0
-133 62 0
-133 -100 0
133 84 -61 -60 96 -52 2 -98 -19 -62 100 0
-134 -32 0
-134 -69 0
-134 86 0
-134 -92 0
-134 -74 0
-134 48 0
-134 60 0
-134 -1 0
-134 75 0
-134 -13 0
134 32 69 -86 92 74 -48 -60 1 -75 13 0
-135 -98 0
-135 -88 0
-135 65 0
-135 45 0
-135 30 0
-135 -6 0
-135 -75 0
-135 91 0
-135 -46 0
-135 -42 0
135 98 88 -65 -45 -30 6 75 -91 46 42 0
-136 29 0
-136 -38 0
-136 -55 0
-136 -53 0
-136 16 0
-136 -60 0
-136 -93 0
-136 24 0
-136 -32 0
-136 -23 0
136 -29 38 55 53 -16 60 93 -24 32 23 0
-137 -75 0
-137 -6 0
-137 -79 0
-137 57 0
-137 -56 0
-137 -63 0
-137 -4 0
-137 -37 0
-137 23 0
-137 -2 0
137 75 6 79 -57 56 63 4 37 -23 2 0
-138 51 0
-138 70 0
-138 -64 0
-138 28 0
-138 97 0
-138 37 0
-138 -45 0
-138 71 0
-138 -46 0
-138 15 0
138 -51 -70 64 -28 -97 -37 45 -71 46 -15 0
-139 -98 0
-139 23 0
-139 -93 0
-139 -89 0
-139 74 0
-139 82 0
-139 -60 0
-139 -2 0
-139 64 0
-139 33 0
139 98 -23 93 89 -74 -82 60 2 -64 -33 0
-140 6 0
-140 61 0
-140 14 0
-140 -59 0
-140 -22 0
-140 -86 0
-140 9 0
-140 -55 0
-140 23 0
-140 19 0
140 -6 -61 -14 59 22 86 -9 55 -23 -19 0
131 132 133 134 135 136 137 138 139 140 0
-141 -87 0
-141 -2 0
-141 72 0
-141 -86 0
-141 -5 0
-141 -60 0
-141 85 0
-141 48 0
-141 -55 0
-141 -24 0
141 87 2 -72 86 5 60 -85 -48 55 24 0
-142 68 0
-142 75 0
-142 83 0
-142 100 0
-142 90 0
-142 -34 0
-142 79 0
-142 -22 0
-142 -24 0
-142 77 0
142 -68 -75 -83 -100 -90 34 -79 22 24 -77 0
-143 -91 0
-143 29 0
-143 -5 0
-143 -31 0
-143 -27 0
-143 67 0
-143 -33 0
-143 55 0
-143 -23 0
-143 -13 0
143 91 -29 5 31 27 -67 33 -55 23 13 0
-144 -49 0
-144 -41 0
-144 -11 0
-144 52 0
-144 -38 0
-144 83 0
-144 19 0
-144 99 0
-144 13 0
-144 -18 0
144 49 41 11 -52 38 -83 -19 -99 -13 18 0
-145 -65 0
-145 8 0
-145 -59 0
-145 -81 0
-145 75 0
-145 46 0
-145 -99 0
-145 14 0
-145 -96 0
-145 2 0
145 65 -8 59 81 -75 -46 99 -14 96 -2 0
-146 -88 0
-146 9 0
-146 80 0
-146 -40 0
-146 -34 0
-146 74 0
-146 -18 0
-146 44 0
-146 1 0
-146 12 0
146 88 -9 -80 40 34 -74 18 -44 -1 -12 0
-147 -47 0
-147 -67 0
-147 92 0
-147 73 0
-147 62 0
-147 -77 0
-147 13 0
-147 26 0
-147 -99 0
-147 82 0
147 47 67 -92 -73 -62 77 -13 -26 99 -82 0
-148 19 0
-148 -34 0
-148 -85 0
-148 -35 0
-148 -25 0
-148 -24 0
-148 -26 0
-148 -96 0
-148 -38 0
-148 23 0
148 -19 34 85 35 25 24 26 96 38 -23 0
-149 92 0
-149 -33 0
-149 97 0
-149 -83 0
-149 -91 0
-149 -55 0
-149 -48 0
-149 -58 0
-149 39 0
-149 -25 0
149 -92 33 -97 83 91 55 48 58 -39 25 0
-150 -38 0
-150 22 0
-150 -93 0
-150 -57 0
-150 99 0
-150 -43 0
-150 83 0
-150 90 0
-150 -32 0
-150 31 0
150 38 -22 93 57 -99 43 -83 -90 32 -31 0
141 142 143 144 145 146 147 148 149 150 0
-151 69 0
-151 44 0
-151 12 0
-151 -20 0
-151 -26 0
-151 92 0
-151 -57 0
-151 37 0
-151 -53 0
-151 -54 0
151 -69 -44 -12 20 26 -92 57 -37 53 54 0
-152 51 0
-152 21 0
-152 29 0
-152 53 0
-152 -64 0
-152 49 0
-152 55 0
-152 11 0
-152 -87 0
-152 -79 0
152 -51 -21 -29 -53 64 -49 -55 -11 87 79 0
-153 -50 0
-153 -47 0
-153 -33 0
-153 -96 0
-153 -90 0
-153 19 0
-153 -64 0
-153 -81 0
-153 43 0
-153 -9 0
153 50 47 33 96 90 -19 64 81 -43 9 0
-154 -3 0
-154 9 0
-154 13 0
-154 59 0
-154 -53 0
-154 70 0
-154 31 0
-154 64 0
-154 65 0
-154 96 0
154 3 -9 -13 -59 53 -70 -31 -64 -65 -96 0
-155 34 0
-155 -83 0
-155 -57 0
-155 -16 0
-155 -21 0
-155 -20 0
-155 -81 0
-155 -54 0
-155 -19 0
-155 -12 0
155 -34 83 57 16 21 20 81 54 19 12 0
-156 94 0
-156 24 0
-156 82 0
-156 -47 0
-156 -58 0
-156 -93 0
-156 -44 0
-156 -22 0
-156 15 0
-156 -59 0
156 -94 -24 -82 47 58 93 44 22 -15 59 0
-157 -34 0
-157 36 0
-157 -9 0
-157 54 0
-157 50 0
-157 38 0
-157 -91 0
-157 86 0
-157 -59 0
-157 44 0
157 34 -36 9 -54 -50 -38 91 -86 59 -44 0
-158 -42 0
-158 13 0
-158 -9 0
-158 -71 0
-158 11 0
-158 12 0
-158 -3 0
-158 39 0
-158 -7 0
-158 -37 0
158 42 -13 9 71 -11 -12 3 -39 7 37 0
-159 -78 0
-159 -12 0
-159 30 0
-159 7 0
-159 97 0
-159 63 0
-159 -75 0
-159 -82 0
-159 5 0
-159 -96 0
159 78 12 -30 -7 -97 -63 75 82 -5 96 0
-160 48 0
-160 -2 0
-160 -15 0
-160 -27 0
-160 99 0
-160 -65 0
-160 51 0
-160 -28 0
-160 -41 0
-160 92 0
160 -48 2 15 27 -99 65 -51 28 41 -92 0
151 152 153 154 155 156 157 158 159 160 0
-161 -99 0
-161 -44 0
-161 25 0
-161 -87 0
-161 55 0
-161 -28 0
-161 27 0
-161 -72 0
-161 -43 0
-161 -4 0
161 99 44 -25 87 -55 28 -27 72 43 4 0
-162 -11 0
-162 -21 0
-162 -13 0
-162 93 0
-162 -9 0
-162 -95 0
-162 18 0
-162 -79 0
-162 -64 0
-162 68 0
162 11 21 13 -93 9 95 -18 79 64 -68 0
-163 68 0
-163 26 0
-163 25 0
-163 -60 0
-163 13 0
-163 35 0
-163 -61 0
-163 49 0
-163 54 0
-163 -34 0
163 -68 -26 -25 60 -13 -35 61 -49 -54 34 0
-164 -13 0
-164 57 0
-164 -94 0
-164 -63 0
-164 -58 0
-164 -56 0
-164 98 0
-164 -51 0
-164 84 0
-164 -52 0
164 13 -57 94 63 58 56 -98 51 -84 52 0
-165 -56 0
-165 77 0
-165 64 0
-165 -31 0
-165 -34 0
-165 59 0
-165 -7 0
-165 -61 0
-165 47 0
-165 -87 0
165 56 -77 -64 31 34 -59 7 61 -47 87 0
-166 -98 0
-166 -68 0
-166 82 0
-166 65 0
-166 -43 0
-166 45 0
-166 -95 0
-166 53 0
-166 48 0
-166 25 0
166 98 68 -82 -65 43 -45 95 -53 -48 -25 0
-167 31 0
-167 -79 0
-167 80 0
-167 35 0
-167 -48 0
-167 49 0
-167 -55 0
-167 -47 0
-167 84 0
-167 76 0
167 -31 79 -80 -35 48 -49 55 47 -84 -76 0
-168 -34 0
-168 -2 0
-168 44 0
-168 -5 0
-168 37 0
-168 94 0
-168 59 0
-168 23 0
-168 -78 0
-168 -56 0
168 34 2 -44 5 -37 -94 -59 -23 78 56 0
-169 -74 0
-169 35 0
-169 6 0
-169 -69 0
-169 67 0
-169 -2 0
-169 -73 0
-169 28 0
-169 -52 0
-169 71 0
169 74 -35 -6 69 -67 2 73 -28 52 -71 0
-170 -51 0
-170 91 0
-170 82 0
-170 -8 0
-170 -23 0
-170 7 0
-170 -25 0
-170 87 0
-170 64 0
-170 47 0
170 51 -91 -82 8 23 -7 25 -87 -64 -47 0
161 162 163 164 165 166 167 168 169 170 0
-171 -60 0
-171 96 0
-171 -29 0
-171 -64 0
-171 81 0
-171 -58 0
-171 -37 0
-171 85 0
-171 77 0
-171 27 0
171 60 -96 29 64 -81 58 37 -85 -77 -27 0
-172 26 0
-172 -74 0
-172 -82 0
-172 91 0
-172 -45 0
-172 89 0
-172 -86 0
-172 70 0
-172 30 0
-172 -35 0
172 -26 74 82 -91 45 -89 86 -70 -30 35 0
-173 -61 0
-173 41 0
-173 -56 0
-173 9 0
-173 -48 0
-173 76 0
-173 -90 0
-173 -67 0
-173 -26 0
-173 -36 0
173 61 -41 56 -9 48 -76 90 67 26 36 0
-174 17 0
-174 -97 0
-174 46 0
-174 -87 0
-174 -74 0
-174 79 0
-174 94 0
-174 64 0
-174 2 0
-174 -78 0
174 -17 97 -46 87 74 -79 -94 -64 -2 78 0
-175 99 0
-175 58 0
-175 -89 0
-175 88 0
-175 76 0
-175 -50 0
-175 41 0
-175 18 0
-175 86 0
-175 51 0
175 -99 -58 89 -88 -76 50 -41 -18 -86 -51 0
-176 38 0
-176 -65 0
-176 -50 0
-176 -71 0
-176 -85 0
-176 -99 0
-176 11 0
-176 9 0
-176 59 0
-176 -16 0
176 -38 65 50 71 85 99 -11 -9 -59 16 0
-177 31 0
-177 2 0
-177 1 0
-177 -15 0
-177 -51 0
-177 -78 0
-177 -99 0
-177 76 0
-177 -10 0
-177 82 0
177 -31 -2 -1 15 51 78 99 -76 10 -82 0
-178 -7 0
-178 -54 0
-178 -96 0
-178 9 0
-178 -24 0
-178 -100 0
-178 64 0
-178 25 0
-178 -81 0
-178 29 0
178 7 54 96 -9 24 100 -64 -25 81 -29 0
-179 88 0
-179 -40 0
-179 90 0
-179 -61 0
-179 -65 0
-179 5 0
-179 -19 0
-179 -47 0
-179 -26 0
-179 34 0
179 -88 40 -90 61 65 -5 19 47 26 -34 0
-180 -65 0
-180 34 0
-180 31 0
-180 45 0
-180 58 0
-180 6 0
-180 -19 0
-180 -37 0
-180 -93 0
-180 -47 0
180 65 -34 -31 -45 -58 -6 19 37 93 47 0
171 172 173 174 175 176 177 178 179 180 0
-181 30 0
-181 13 0
-181 71 0
-181 60 0
-181 -51 0
-181 -66 0
-181 68 0
-181 -91 0
-181 36 0
-181 -38 0
181 -30 -13 -71 -60 51 66 -68 91 -36 38 0
-182 14 0
-182 60 0
-182 4 0
-182 70 0
-182 -57 0
-182 62 0
-182 97 0
-182 45 0
-182 83 0
-182 69 0
182 -14 -60 -4 -70 57 -62 -97 -45 -83 -69 0
-183 -39 0
-183 54 0
-183 73 0
-183 -3 0
-183 -82 0
-183 72 0
-183 47 0
-183 66 0
-183 -99 0
-183 98 0
183 39 -54 -73 3 82 -72 -47 -66 99 -98 0
-184 -34 0
-184 -6 0
-184 -36 0
-184 18 0
-184 22 0
-184 -61 0
-184 -81 0
-184 21 0
-184 86 0
-184 96 0
184 34 6 36 -18 -22 61 81 -21 -86 -96 0
-185 31 0
-185 68 0
-185 97 0
-185 -9 0
-185 73 0
-185 67 0
-185 37 0
-185 -89 0
-185 87 0
-185 -32 0
185 -31 -68 -97 9 -73 -67 -37 89 -87 32 0
-186 -33 0
-186 36 0
-186 -77 0
-186 57 0
-186 99 0
-186 62 0
-186 -67 0
-186 48 0
-186 8 0
-186 -17 0
186 33 -36 77 -57 -99 -62 67 -48 -8 17 0
-187 -24 0
-187 -4 0
-187 57 0
-187 94 0
-187 -31 0
-187 -59 0
-187 62 0
-187 91 0
-187 -67 0
-187 -23 0
187 24 4 -57 -94 31 59 -62 -91 67 23 0
-188 -29 0
-188 -47 0
-188 41 0
-188 -43 0
-188 -37 0
-188 79 0
-188 97 0
-188 -92 0
-188 -8 0
-188 53 0
188 29 47 -41 43 37 -79 -97 92 8 -53 0
-189 12 0
-189 62 0
-189 -7 0
-189 -61 0
-189 -98 0
-189 -11 0
-189 86 0
-189 -25 0
-189 -89 0
-189 100 0
189 -12 -62 7 61 98 11 -86 25 89 -100 0
-190 79 0
-190 71 0
-190 -51 0
-190 89 0
-190 -38 0
-190 -87 0
-190 -50 0
-190 7 0
-190 -27 0
-190 35 0
190 -79 -71 51 -89 38 87 50 -7 27 -35 0
181 182 183 184 185 186 187 188 189 190 0
-191 55 0
-191 50 0
-191 72 0
-191 69 0
-191 -67 0
-191 21 0
-191 -76 0
-191 28 0
-191 41 0
-191 -91 0
191 -55 -50 -72 -69 67 -21 76 -28 -41 91 0
-192 91 0
-192 7 0
-192 26 0
-192 -82 0
-192 -69 0
-192 19 0
-192 -72 0
-192 61 0
-192 92 0
-192 14 0
192 -91 -7 -26 82 69 -19 72 -61 -92 -14 0
-193 5 0
-193 -85 0
-193 -20 0
-193 -1 0
-193 -66 0
-193 -77 0
-193 -70 0
-193 86 0
-193 -27 0
-193 -12 0
193 -5 85 20 1 66 77 70 -86 27 12 0
-194 -47 0
-194 65 0
-194 92 0
-194 -71 0
-194 -63 0
-194 -41 0
-194 51 0
-194 -22 0
-194 -12 0
-194 -58 0
194 47 -65 -92 71 63 41 -51 22 12 58 0
-195 -50 0
-195 93 0
-195 22 0
-195 26 0
-195 59 0
-195 -61 0
-195 37 0
-195 49 0
-195 56 0
-195 -18 0
195 50 -93 -22 -26 -59 61 -37 -49 -56 18 0
-196 52 0
-196 -54 0
-196 82 0
-196 31 0
-196 34 0
-196 -66 0
-196 -7 0
-196 -3 0
-196 -41 0
-196 -50 0
196 -52 54 -82 -31 -34 66 7 3 41 50 0
-197 -42 0
-197 28 0
-197 85 0
-197 34 0
-197 3 0
-197 -4 0
-197 -43 0
-197 2 0
-197 -74 0
-197 50 0
197 42 -28 -85 -34 -3 4 43 -2 74 -50 0
-198 24 0
-198 -5 0
-198 -82 0
-198 43 0
-198 65 0
-198 22 0
-198 -27 0
-198 -87 0
-198 -30 0
-198 97 0
198 -24 5 82 -43 -65 -22 27 87 30 -97 0
-199 -94 0
-199 54 0
-199 -21 0
-199 -48 0
-199 46 0
-199 17 0
-199 9 0
-199 12 0
-199 -27 0
-199 -69 0
199 94 -54 21 48 -46 -17 -9 -12 27 69 0
-200 -97 0
-200 59 0
-200 -51 0
-200 -88 0
-200 -24 0
-200 65 0
-200 -61 0
-200 -1 0
-200 -32 0
-200 81 0
200 97 -59 51 88 24 -65 61 1 32 -81 0
191 192 193 194 195 196 197 198 199 200 0
